p tw 39 43
1 2
2 13
3 4
4 5
5 6
6 7
7 8
8 9
8 12
9 10
10 11
11 37
12 14
13 24
14 32
15 16
16 17
17 18
18 19
18 30
19 20
20 21
21 22
22 23
23 25
24 34
25 26
26 27
26 30
27 28
28 29
29 17
30 31
31 32
32 33
34 35
35 36
36 37
36 15
37 38
38 39
38 12
39 3
